c description: Random 3-CNF over 21 variables and 89 clauses
c generator: CNFgen (0.9.2)
c copyright: (C) 2012-2022 Massimo Lauria <massimo.lauria@uniroma1.it>
c url: https://massimolauria.net/cnfgen
c command line: cnfgen --output CNF_4.28/21_bit_89_924.cnf randkcnf 3 21 89
c
p cnf 21 89
-12 13 -14 0
3 -18 -19 0
-12 15 -20 0
11 15 -17 0
-2 -3 18 0
2 9 18 0
-3 -12 18 0
-4 11 12 0
-2 7 -19 0
2 15 20 0
4 7 20 0
-3 -4 10 0
-8 11 21 0
-1 8 -17 0
9 -17 -19 0
11 -17 20 0
3 17 -20 0
-4 -5 8 0
1 14 17 0
2 9 -10 0
10 12 21 0
2 -5 18 0
2 -3 18 0
9 12 18 0
-6 -8 19 0
-9 -14 21 0
5 -13 -18 0
-6 -13 -17 0
2 3 10 0
9 -11 -18 0
4 8 21 0
2 11 -16 0
15 17 -19 0
-9 10 20 0
4 16 18 0
-10 11 21 0
2 3 -15 0
-4 5 -12 0
3 14 -21 0
2 10 21 0
-6 7 -10 0
1 -7 17 0
-8 -9 18 0
-8 -11 20 0
1 -3 19 0
-9 -13 14 0
-8 -16 17 0
1 -2 -5 0
3 18 -19 0
-4 -11 -19 0
-9 -14 17 0
-7 16 -18 0
-6 14 19 0
-1 5 11 0
-5 19 20 0
17 19 21 0
3 -16 19 0
-1 -2 -12 0
1 2 11 0
4 -14 -19 0
-2 -3 10 0
12 15 18 0
4 7 -17 0
-7 13 16 0
-5 -11 17 0
10 -11 -15 0
-5 -13 16 0
-10 -13 -19 0
2 -12 -20 0
7 11 -20 0
-1 7 -10 0
-4 -14 20 0
-1 -6 -9 0
4 -9 -13 0
5 -10 -16 0
1 -3 15 0
5 12 -19 0
-1 11 -21 0
-6 -18 20 0
-5 -9 15 0
1 7 12 0
3 -6 -14 0
10 -14 16 0
1 18 -20 0
7 -11 -20 0
1 -13 14 0
-6 11 -14 0
-1 12 14 0
2 8 20 0
